$ -------------------------------------------------------------------- $
$ WAVEWATCH III Grid preprocessor input file                           $
$ SCS_WNP_1_24deg                                                     $
$ -------------------------------------------------------------------- $

  'SCS_WNP_1_24deg'


$ -------------------------------------------------------------------- $
$ Spectral grid
$ XFR  FREQ1  NK  NTH  THOFF
$ -------------------------------------------------------------------- $

  1.1  0.05  40  48  0.5


$ -------------------------------------------------------------------- $
$ Model flags
$ FLDRY FLCX FLCY FLCTH FLCK FLSOU
$ -------------------------------------------------------------------- $

  F T T T T T


$ -------------------------------------------------------------------- $
$ Time steps
$ DTMAX DTXY DTKTH DTMIN
$ -------------------------------------------------------------------- $

  300. 90. 90. 10.


$ -------------------------------------------------------------------- $
$ Namelist section
$ -------------------------------------------------------------------- $

 &SIN4 BETAMAX = 1.33, Z0MAX = 0.002 /

 &SDS4 SDSC1 = 0.0, FXFM3 = 2.5,
       SDSBR = 0.00085, SDSCUM = 0.0 /

 &SNL1 NLPROP = 2.7E7 /

 &PRO3 WDTHCG = 0., WDTHTH = 0. /

 &MISC FLAGTR = 0 /

END OF NAMELISTS


$ -------------------------------------------------------------------- $
$ Spatial grid
$ -------------------------------------------------------------------- $

  'RECT' T 'NONE'


$ NX NY
$

  505 337


$ DX DY scale
$

  0.0416666667 0.0416666667 1.


$ Longitude Latitude of first point
$

  115.0 12.0 1.



$ -------------------------------------------------------------------- $
$ Bottom bathymetry
$ -------------------------------------------------------------------- $

$
$ limiting depth
$ minimum depth
$ unit
$ scale
$ IDLA
$ IDFM
$

  -0.1 10.0 20 1.0 1 1 '(....)' 'NAME' '../input/depth_SCS.dat'



$ -------------------------------------------------------------------- $
$ Status map
$
$ Use PART format like tp2.8
$
$ 0 : land
$ 1 : sea
$ 2 : active boundary
$
$ -------------------------------------------------------------------- $

  21 3 1 '(....)' 'PART' '../input/mask_SCS.dat'



$ -------------------------------------------------------------------- $
$ Input boundary points
$
$ IX  IY  CONNECT_FLAG
$
$ Second grid line boundary
$
$ -------------------------------------------------------------------- $

      504 336   F
        2 336   T
        2   2   T
      504   2   T
      504 336   T


$ Close list

      0   0   F



$ -------------------------------------------------------------------- $
$ Excluded grid points
$ -------------------------------------------------------------------- $

      0   0   F



$ -------------------------------------------------------------------- $
$ Remove closed bodies of sea points
$ -------------------------------------------------------------------- $

      0   0



$ -------------------------------------------------------------------- $
$ Output boundary points
$ -------------------------------------------------------------------- $

      0.    0.    0.    0.       0



$ -------------------------------------------------------------------- $
$ End of input file
$ -------------------------------------------------------------------- $
