$ -------------------------------------------------------------------- $
$ WAVEWATCH III shell input file                                       $
$ SCS regional simulation with NAVGEM forcing                         $
$ -------------------------------------------------------------------- $
$
   F F     Water levels
   F F     Currents
   T F     Winds
   F       Ice concentrations
   F       Assimilation data : Mean parameters
   F       Assimilation data : 1-D spectra
   F       Assimilation data : 2-D spectra
$
$ Simulation period
$
   20230721 120000
   20230729 000000
$
$ Number of grids
$
   1
$
$ Type 1 : Fields of mean wave parameters
$
   20230721 120000  10800  20230729 000000
$
$ -------------------------------------------------------------------- $
$ Field output                                                        $
$ -------------------------------------------------------------------- $
$
   N
   HS WND T02 DP DIR FP USS

$
$ Type 2 : Point output
$
   20230721 120000  0  20230729 000000

$
$ Type 3 : Output along  track.
$
   20230721 120000  0  20230729 000000

$
$ Type 4 : Restart files (no additional data required).
$
   20230721 120000  0  20230729 000000

$
$ Type 5 : Boundary data (no additional data required).
$
   20230721 120000  0  20230729 000000

$
$ Type 6 : Partitionned data 
$
   20230721 120000  0  20230729 000000

$
   'STP'
$
$ -------------------------------------------------------------------- $
$ End of input file                                                    $
$ -------------------------------------------------------------------- $
