$ -------------------------------------------------------------------- $
$ WAVEWATCH III Grid preprocessor input file                           $
$ SCS_WNP_1_24deg                                                     $
$ -------------------------------------------------------------------- $

  'SCS_WNP_1_12deg'


$ -------------------------------------------------------------------- $
$ Spectral grid
$ XFR  FREQ1  NK  NTH  THOFF
$ -------------------------------------------------------------------- $

  1.1  0.05  40  48  0.5


$ -------------------------------------------------------------------- $
$ Model flags
$ FLDRY FLCX FLCY FLCTH FLCK FLSOU
$ -------------------------------------------------------------------- $

  F T T T T T


$ -------------------------------------------------------------------- $
$ Time steps
$ DTMAX DTXY DTKTH DTMIN
$ -------------------------------------------------------------------- $

  600. 180. 180. 20.


$ -------------------------------------------------------------------- $
$ Namelist section
$ -------------------------------------------------------------------- $

 &SIN4 BETAMAX = 1.33, Z0MAX = 0.002 /

 &SDS4 SDSC1 = 0.0, FXFM3 = 2.5,
       SDSBR = 0.00085, SDSCUM = 0.0 /

 &SNL1 NLPROP = 2.7E7 /

 &PRO3 WDTHCG = 0., WDTHTH = 0. /

 &MISC FLAGTR = 0 /

END OF NAMELISTS


$ -------------------------------------------------------------------- $
$ Spatial grid
$ -------------------------------------------------------------------- $

  'RECT' T 'NONE'


$ NX NY
$

  433 313


$ DX DY scale
$
  
  0.0833333333 0.0833333333 1.


$ Longitude Latitude of first point
$

  109.0 6.0 1.



$ -------------------------------------------------------------------- $
$ Bottom bathymetry
$ -------------------------------------------------------------------- $

$
$ limiting depth
$ minimum depth
$ unit
$ scale
$ IDLA
$ IDFM
$

  -0.1 10.0 20 1.0 1 1 '(....)' 'NAME' '../input/depth_SCS.dat'



$ -------------------------------------------------------------------- $
$ Status map
$
$ Use PART format like tp2.8
$
$ 0 : land
$ 1 : sea
$ 2 : active boundary
$
$ -------------------------------------------------------------------- $

  21 3 1 '(....)' 'PART' '../input/mask_SCS.dat'



$ -------------------------------------------------------------------- $
$ Input boundary points
$
$ IX  IY  CONNECT_FLAG
$
$ Second grid line boundary
$
$ -------------------------------------------------------------------- $

      0   0   F


$ -------------------------------------------------------------------- $
$ Excluded grid points
$ -------------------------------------------------------------------- $

      0   0   F



$ -------------------------------------------------------------------- $
$ Remove closed bodies of sea points
$ -------------------------------------------------------------------- $

      0   0


$ Output boundary points --------------------------------------------- $
$     X0             Y0             DX             DY       NPTS
$
   115.04166667    12.04166667   0.0416666667   0.0000000000    116
   125.58333333    12.04166667   0.0416666667   0.0000000000    250
   119.83333333    25.95833333   0.0416666667   0.0000000000    272
   131.45833333    25.95833333   0.0416666667   0.0000000000    109
   115.04166667    12.04166667   0.0000000000   0.0416666667    258
   135.95833333    12.04166667   0.0000000000   0.0416666667    335
$
$ Close list by defining line with 0 points (mandatory)
$
            0.0            0.0            0.0            0.0      0


$ -------------------------------------------------------------------- $
$ End of input file
$ -------------------------------------------------------------------- $
